46	12	4	29	
9	10	12	9

0	0	0	0	0	0	3	1	2	3
1	2	0	0	0	4	2	6	8
2	0	0	6	0	4	2	4	6
3	1	0	10	0	3	3	6	8	10
4	0	0	0	6	1	1	5
5	0	0	3	1	3	1	7
6	6	3	3	1	4	1	9
7	8	0	10	5	8	2	8	10
8	0	9	5	0	9	1	11
9	5	0	5	0	9	1	11
10	0	5	0	2	1	1	11
11	0	0	0	0	0	0
